<?xml version = "1.0" standalone="yes"?>
<!-- This file has been generated by DOcplex version 2.23.222  -->
<CPLEXSolution version="1.0">
 <header
   problemName="CVRP"
   objectiveValue="15386.8"
  />
 <variables>
  <variable name="x_0_7" index="6" value="1.00000"/>
  <variable name="x_0_8" index="7" value="1.00000"/>
  <variable name="x_0_14" index="13" value="1.00000"/>
  <variable name="x_0_17" index="16" value="1.00000"/>
  <variable name="x_0_18" index="17" value="1.00000"/>
  <variable name="x_0_20" index="19" value="1.00000"/>
  <variable name="x_0_21" index="20" value="1.00000"/>
  <variable name="x_0_23" index="22" value="1.00000"/>
  <variable name="x_0_24" index="23" value="1.00000"/>
  <variable name="x_0_26" index="25" value="1.00000"/>
  <variable name="x_0_28" index="27" value="1.00000"/>
  <variable name="x_1_0" index="28" value="1.00000"/>
  <variable name="x_2_10" index="65" value="1.00000"/>
  <variable name="x_3_6" index="89" value="1.00000"/>
  <variable name="x_4_9" index="120" value="1.00000"/>
  <variable name="x_5_2" index="142" value="1.00000"/>
  <variable name="x_6_0" index="168" value="1.00000"/>
  <variable name="x_7_13" index="208" value="1.00000"/>
  <variable name="x_8_0" index="224" value="1.00000"/>
  <variable name="x_9_0" index="252" value="1.00000"/>
  <variable name="x_10_3" index="283" value="1.00000"/>
  <variable name="x_11_0" index="308" value="1.00000"/>
  <variable name="x_12_0" index="336" value="1.00000"/>
  <variable name="x_13_1" index="365" value="1.00000"/>
  <variable name="x_14_15" index="406" value="1.00000"/>
  <variable name="x_15_16" index="435" value="1.00000"/>
  <variable name="x_16_0" index="448" value="1.00000"/>
  <variable name="x_17_19" index="494" value="1.00000"/>
  <variable name="x_18_11" index="515" value="1.00000"/>
  <variable name="x_19_0" index="532" value="1.00000"/>
  <variable name="x_20_27" index="586" value="1.00000"/>
  <variable name="x_21_4" index="592" value="1.00000"/>
  <variable name="x_22_0" index="616" value="1.00000"/>
  <variable name="x_23_25" index="668" value="1.00000"/>
  <variable name="x_24_12" index="684" value="1.00000"/>
  <variable name="x_25_0" index="700" value="1.00000"/>
  <variable name="x_26_22" index="750" value="1.00000"/>
  <variable name="x_27_0" index="756" value="1.00000"/>
  <variable name="x_28_5" index="789" value="1.00000"/>
  <variable name="u_1" index="812" value="59.00000"/>
  <variable name="u_2" index="813" value="52.00000"/>
  <variable name="u_3" index="814" value="65.00000"/>
  <variable name="u_4" index="815" value="69.00000"/>
  <variable name="u_5" index="816" value="13.00000"/>
  <variable name="u_6" index="817" value="69.00000"/>
  <variable name="u_7" index="818" value="16.00000"/>
  <variable name="u_8" index="819" value="75.00000"/>
  <variable name="u_9" index="820" value="74.00000"/>
  <variable name="u_10" index="821" value="53.00000"/>
  <variable name="u_11" index="822" value="75.00000"/>
  <variable name="u_12" index="823" value="75.00000"/>
  <variable name="u_13" index="824" value="21.00000"/>
  <variable name="u_14" index="825" value="52.00000"/>
  <variable name="u_15" index="826" value="65.00000"/>
  <variable name="u_16" index="827" value="67.00000"/>
  <variable name="u_17" index="828" value="35.00000"/>
  <variable name="u_18" index="829" value="32.00000"/>
  <variable name="u_19" index="830" value="75.00000"/>
  <variable name="u_20" index="831" value="25.00000"/>
  <variable name="u_21" index="832" value="53.00000"/>
  <variable name="u_22" index="833" value="75.00000"/>
  <variable name="u_23" index="834" value="13.00000"/>
  <variable name="u_24" index="835" value="60.00000"/>
  <variable name="u_25" index="836" value="65.00000"/>
  <variable name="u_26" index="837" value="39.00000"/>
  <variable name="u_27" index="838" value="73.00000"/>
  <variable name="u_28" index="839" value="7.00000"/>
 </variables>
</CPLEXSolution>
